(set-logic QF_S)
(declare-fun var_0xINPUT_156340 () String)
(assert (and (= (len var_0xINPUT_156340) 0) (= (len var_0xINPUT_156340) 0) (not (= var_0xINPUT_156340 "Example:")) (not (= var_0xINPUT_156340 "CQALcCP5TB"))))
(check-sat var_0xINPUT_156340)